12
0,9,15,14,17,15,19,4,6,1,7,4
9,0,20,14,18,3,7,20,8,17,12,5
15,20,0,13,5,15,4,4,16,11,5,18
14,14,13,0,13,17,5,18,19,17,2,7
17,18,5,13,0,3,13,14,2,3,6,7
15,3,15,17,3,0,17,5,10,13,8,14
19,7,4,5,13,17,0,20,6,20,7,8
4,20,4,18,14,5,20,0,18,16,3,16
6,8,16,19,2,10,6,18,0,10,16,2
1,17,11,17,3,13,20,16,10,0,10,11
7,12,5,2,6,8,7,3,16,10,0,10
4,5,18,7,7,14,8,16,2,11,10,0
